10
7 95
36 14 48 32 61 43 29 
36 56 240 320 61 43 290 
6 73
26 71 6 37 12 15 
234 639 54 111 96 150 
1 3
76 
228 
6 30
21 73 68 55 14 17 
63 584 68 275 56 85 
3 32
33 60 83 
330 360 747 
6 64
23 9 37 56 8 79 
207 9 333 280 8 79 
3 54
92 86 31 
552 860 155 
7 98
59 84 6 48 12 60 90 
354 84 60 144 24 60 90 
6 3
90 78 17 90 10 26 
810 234 68 180 10 182 
3 93
37 54 26 
37 486 208 
